NAME : local_3
TYPE : ATSP
DIMENSION : 22
EDGE_WEIGHT_TYPE : EXPLICIT
EDGE_WEIGHT_FORMAT : FULL_MATRIX
EDGE_WEIGHT_SECTION
0 10000000 10000000 957 10000000 10000000 10000000 10000000 10000000 789 10000000 928 827 458 275 10000000 10000000 1043 900 10000000 350 10000000 
0 0 251 870 10000000 221 781 376 10000000 10000000 10000000 928 10000000 10000000 10000000 10000000 10000000 750 10000000 640 10000000 10000000 
0 251 0 669 10000000 463 10000000 481 10000000 10000000 10000000 10000000 10000000 10000000 10000000 10000000 10000000 899 10000000 879 10000000 10000000 
0 870 669 0 10000000 10000000 10000000 835 10000000 10000000 10000000 10000000 10000000 534 10000000 10000000 10000000 10000000 10000000 10000000 10000000 649 
0 10000000 10000000 10000000 0 10000000 10000000 10000000 594 509 238 10000000 751 998 10000000 778 881 10000000 356 10000000 10000000 705 
0 221 463 10000000 10000000 0 586 344 1068 10000000 10000000 813 10000000 10000000 10000000 10000000 10000000 611 10000000 419 10000000 10000000 
0 781 10000000 10000000 10000000 586 0 834 678 10000000 10000000 10000000 10000000 10000000 10000000 689 866 832 10000000 334 10000000 10000000 
0 376 481 835 10000000 344 834 0 10000000 10000000 10000000 566 10000000 923 10000000 10000000 10000000 420 10000000 585 10000000 10000000 
0 10000000 10000000 10000000 594 1155 678 10000000 0 593 813 10000000 586 10000000 10000000 192 365 10000000 530 827 10000000 10000000 
0 10000000 10000000 10000000 509 10000000 10000000 10000000 593 0 711 10000000 295 803 10000000 685 655 10000000 153 10000000 666 890 
0 10000000 10000000 10000000 238 10000000 10000000 10000000 813 711 0 10000000 975 10000000 10000000 10000000 10000000 10000000 566 10000000 10000000 583 
0 928 10000000 10000000 10000000 813 10000000 566 10000000 10000000 10000000 0 10000000 10000000 797 10000000 10000000 217 10000000 740 10000000 10000000 
0 10000000 10000000 10000000 751 10000000 10000000 10000000 586 295 975 10000000 0 982 10000000 591 472 10000000 412 10000000 624 10000000 
0 10000000 10000000 534 998 10000000 10000000 922 10000000 803 10000000 10000000 982 0 608 10000000 10000000 10000000 845 10000000 710 704 
0 10000000 10000000 10000000 10000000 10000000 10000000 10000000 10000000 10000000 10000000 797 10000000 608 0 10000000 10000000 946 10000000 10000000 564 10000000 
0 10000000 10000000 10000000 778 10000000 689 10000000 192 685 10000000 10000000 591 10000000 10000000 0 218 10000000 660 821 10000000 10000000 
0 10000000 10000000 10000000 881 10000000 866 10000000 365 655 10000000 10000000 472 10000000 10000000 218 0 10000000 678 942 10000000 10000000 
0 750 899 10000000 10000000 611 832 420 10000000 10000000 10000000 217 10000000 10000000 946 10000000 10000000 0 10000000 530 10000000 10000000 
0 10000000 10000000 10000000 356 10000000 10000000 10000000 530 153 566 10000000 412 845 10000000 660 678 10000000 0 10000000 810 818 
0 640 879 10000000 10000000 419 334 585 827 10000000 10000000 740 10000000 10000000 10000000 821 942 530 10000000 0 10000000 10000000 
0 10000000 10000000 10000000 10000000 10000000 10000000 10000000 10000000 666 10000000 10000000 624 710 564 10000000 10000000 10000000 810 10000000 0 10000000 
0 10000000 10000000 10000000 10000000 10000000 10000000 10000000 10000000 10000000 10000000 10000000 10000000 10000000 10000000 10000000 10000000 10000000 10000000 10000000 10000000 0 
EOF